
Gurobi 11.0.0 (linux64) logging started Thu Dec  5 15:06:08 2024

Set parameter LogFile to value "gurobi.log"
Set parameter InfUnbdInfo to value 1
Gurobi Optimizer version 11.0.0 build v11.0.0rc2 (linux64 - "Ubuntu 22.04.4 LTS")

CPU model: AMD EPYC 7V13 64-Core Processor, instruction set [SSE2|AVX|AVX2]
Thread count: 128 physical cores, 128 logical processors, using up to 32 threads

Optimize a model with 80 rows, 243 columns and 225 nonzeros
Model fingerprint: 0xe4e4104e
Model has 133 quadratic constraints
Model has 17 general constraints
Variable types: 46 continuous, 197 integer (0 binary)
Coefficient statistics:
  Matrix range     [1e+00, 2e+01]
  QMatrix range    [1e+00, 2e+02]
  QLMatrix range   [1e+00, 8e+00]
  Objective range  [1e+00, 1e+00]
  Bounds range     [1e+00, 2e+06]
  RHS range        [1e+00, 2e+06]
  QRHS range       [1e+03, 9e+03]
Using branch priorities (all 0).
Presolve added 21 rows and 64 columns
Presolve time: 0.01s
Presolved: 616 rows, 578 columns, 2638 nonzeros
Presolved model has 159 SOS constraint(s)
Presolved model has 44 bilinear constraint(s)
Warning: Model contains variables with very large bounds participating
         in product terms.
         Presolve was not able to compute smaller bounds for these variables.
         Consider bounding these variables or reformulating the model.


Solving non-convex MIQCP

Variable types: 137 continuous, 441 integer (127 binary)

Root relaxation: objective 8.486756e+01, 166 iterations, 0.00 seconds (0.00 work units)

    Nodes    |    Current Node    |     Objective Bounds      |     Work
 Expl Unexpl |  Obj  Depth IntInf | Incumbent    BestBd   Gap | It/Node Time

     0     0   84.86756    0   83          -   84.86756      -     -    0s
     0     0   84.86756    0   70          -   84.86756      -     -    0s
     0     0  120.27483    0   80          -  120.27483      -     -    0s
     0     0  120.53910    0   77          -  120.53910      -     -    0s
     0     0  120.82800    0   84          -  120.82800      -     -    0s
     0     0  120.82800    0   72          -  120.82800      -     -    1s
     0     0  120.82800    0   57          -  120.82800      -     -    1s
     0     0  123.58011    0   59          -  123.58011      -     -    1s
     0     0  126.78764    0  102          -  126.78764      -     -    1s
     0     0  140.73442    0  103          -  140.73442      -     -    1s
H    0     0                    252913.75000  140.73442   100%     -    1s
     0     0  140.73442    0   91 252913.750  140.73442   100%     -    1s
     0     0  145.00751    0   97 252913.750  145.00751   100%     -    1s
     0     0  145.00751    0  105 252913.750  145.00751   100%     -    1s
     0     0  145.00751    0  100 252913.750  145.00751   100%     -    1s
H    0     0                    150948.12500  145.00751   100%     -    1s
     0     0  145.00751    0  105 150948.125  145.00751   100%     -    2s
     0     0  151.52198    0  113 150948.125  151.52198   100%     -    2s
     0     0  151.66714    0  110 150948.125  151.66714   100%     -    2s
H    0     0                    150947.18750  151.72304   100%     -    2s
     0     0  153.21885    0  112 150947.188  153.21885   100%     -    2s
H    0     0                    150634.87500  153.21885   100%     -    2s
     0     0  155.56210    0  103 150634.875  155.56210   100%     -    2s
     0     0  201.05297    0  102 150634.875  201.05297   100%     -    2s
     0     0  299.39436    0   87 150634.875  299.39436   100%     -    2s
H    0     0                    150633.93750  299.39436   100%     -    2s
     0     0  375.48047    0   76 150633.938  375.48047   100%     -    2s
     0     0  504.64465    0  104 150633.938  504.64465   100%     -    2s
     0     0  522.90470    0   80 150633.938  522.90470   100%     -    2s
H    0     0                    9169.3750000  588.97186  93.6%     -    3s
     0     0  703.02485    0   81 9169.37500  703.02485  92.3%     -    3s
     0     0  703.02485    0   62 9169.37500  703.02485  92.3%     -    3s
     0     0  703.02485    0   83 9169.37500  703.02485  92.3%     -    3s
     0     0  703.02485    0   71 9169.37500  703.02485  92.3%     -    3s
     0     0  703.02485    0   65 9169.37500  703.02485  92.3%     -    3s
H    0     0                    7886.3750000  703.02485  91.1%     -    3s
     0     0  703.02485    0   65 7886.37500  703.02485  91.1%     -    3s
H    0     0                    5276.2181212  703.02485  86.7%     -    3s
     0     0  703.02485    0   42 5276.21812  703.02485  86.7%     -    3s
H    0     0                    5275.9681212  703.02485  86.7%     -    3s
     0     0  758.94608    0   64 5275.96812  758.94608  85.6%     -    3s
H    0     0                    5206.2951018  758.94608  85.4%     -    3s
     0     0  921.34262    0   40 5206.29510  921.34262  82.3%     -    3s
     0     0  921.34262    0   65 5206.29510  921.34262  82.3%     -    4s
     0     0  921.34262    0   53 5206.29510  921.34262  82.3%     -    4s
H    0     0                    5017.6219691  921.34262  81.6%     -    4s
H    0     0                    5017.3719691  921.34262  81.6%     -    4s
     0     0  956.19211    0   63 5017.37197  956.19211  80.9%     -    4s
     0     0  956.19211    0   85 5017.37197  956.19211  80.9%     -    4s
     0     0  956.19211    0   90 5017.37197  956.19211  80.9%     -    4s
     0     0  956.19211    0   73 5017.37197  956.19211  80.9%     -    4s
     0     0  956.19211    0   73 5017.37197  956.19211  80.9%     -    4s
     0     0  956.19211    0   56 5017.37197  956.19211  80.9%     -    4s
     0     0  956.19211    0   63 5017.37197  956.19211  80.9%     -    4s
H    0     0                    4950.5631313  956.19211  80.7%     -    4s
     0     0 1022.86831    0   41 4950.56313 1022.86831  79.3%     -    4s
     0     0 1022.86831    0   76 4950.56313 1022.86831  79.3%     -    4s
H    0     0                    4861.9220702 1022.86831  79.0%     -    4s
     0     0 1103.07393    0   74 4861.92207 1103.07393  77.3%     -    4s
     0     0 1188.29443    0   52 4861.92207 1188.29443  75.6%     -    5s
     0     0 1188.29443    0   76 4861.92207 1188.29443  75.6%     -    5s
     0     0 1270.99720    0   61 4861.92207 1270.99720  73.9%     -    5s
     0     0 1270.99720    0   53 4861.92207 1270.99720  73.9%     -    5s
     0     0 1270.99720    0   53 4861.92207 1270.99720  73.9%     -    5s
     0     0 1270.99720    0   53 4861.92207 1270.99720  73.9%     -    5s
     0     0 1270.99720    0   53 4861.92207 1270.99720  73.9%     -    5s
     0     0 3070.24549    0   40 4861.92207 3070.24549  36.9%     -    5s
     0     0 3070.24549    0   42 4861.92207 3070.24549  36.9%     -    5s
H    0     0                    4421.2998104 3070.24549  30.6%     -    5s
     0     0 3811.26685    0   45 4421.29981 3811.26685  13.8%     -    5s
     0     0 3811.26685    0   46 4421.29981 3811.26685  13.8%     -    5s
     0     0 4148.91511    0   51 4421.29981 4148.91511  6.16%     -    6s
     0     0 4154.38647    0   51 4421.29981 4154.38647  6.04%     -    6s
     0     0 4163.02387    0   46 4421.29981 4163.02387  5.84%     -    6s
     0     0 4163.02387    0   46 4421.29981 4163.02387  5.84%     -    6s
     0     0 4163.02387    0   51 4421.29981 4163.02387  5.84%     -    6s
     0     0 4164.79182    0   51 4421.29981 4164.79182  5.80%     -    6s
H    0     0                    4237.1685797 4164.79182  1.71%     -    6s
     0     0 4164.79182    0   48 4237.16858 4164.79182  1.71%     -    6s
     0     0 4182.92519    0   45 4237.16858 4182.92519  1.28%     -    7s
     0     2 4182.92519    0   45 4237.16858 4182.92519  1.28%     -    7s
H  387     1                    4237.0661032 4233.76306  0.08%   8.3    7s

Cutting planes:
  Gomory: 7
  Implied bound: 18
  MIR: 29
  StrongCG: 3
  Flow cover: 4
  Mod-K: 1
  RLT: 6
  Relax-and-lift: 5

Explored 396 nodes (6198 simplex iterations) in 8.07 seconds (0.30 work units)
Thread count was 32 (of 128 available processors)

Solution count 10: 4237.07 4237.17 4421.3 ... 5276.22

Optimal solution found (tolerance 1.00e-04)
Warning: max constraint violation (4.0312e-03) exceeds tolerance
Warning: max general constraint violation (4.0312e-03) exceeds tolerance
  Piecewise linearization of function constraints often causes big violation.
  Try to adjust the settings of the related parameters, such as FuncPieces.
Best objective 4.237066103235e+03, best bound 4.237066103235e+03, gap 0.0000%
